\ Model Master
\ LP format - for model browsing. Use MPS format to capture full model detail.
Minimize
  x0 + x1 + x2 + x3 + x4
Subject To
 R0: 6 x0 + 2 x4 >= 25
 R1: 2 x1 + 2 x4 >= 30
 R2: 2 x2 >= 14
 R3: x3 >= 8
Bounds
End
